p cnf 964 2475
51 -697 -698 0
-51 697 0
-51 698 0
52 -51 -3 0
-52 51 0
-52 3 0
53 -5 -4 0
-53 5 0
-53 4 0
54 -53 -6 0
-54 53 0
-54 6 0
55 -699 -700 0
-55 699 0
-55 700 0
56 -8 -7 0
-56 8 0
-56 7 0
57 -56 -701 0
-57 56 0
-57 701 0
58 -702 -55 0
-58 702 0
-58 55 0
59 -10 -7 0
-59 10 0
-59 7 0
60 -59 -703 0
-60 59 0
-60 703 0
61 -704 -58 0
-61 704 0
-61 58 0
62 -12 -705 0
-62 12 0
-62 705 0
63 -62 -703 0
-63 62 0
-63 703 0
64 -706 -61 0
-64 706 0
-64 61 0
65 -13 -707 0
-65 13 0
-65 707 0
66 -65 -14 0
-66 65 0
-66 14 0
67 -708 -64 0
-67 708 0
-67 64 0
68 -16 -15 0
-68 16 0
-68 15 0
69 -68 -17 0
-69 68 0
-69 17 0
70 -709 -67 0
-70 709 0
-70 67 0
71 -19 -18 0
-71 19 0
-71 18 0
72 -71 -20 0
-72 71 0
-72 20 0
73 -710 -70 0
-73 710 0
-73 70 0
74 -19 -698 0
-74 19 0
-74 698 0
75 -74 -711 0
-75 74 0
-75 711 0
76 -712 -73 0
-76 712 0
-76 73 0
77 -713 -714 0
-77 713 0
-77 714 0
78 -77 -3 0
-78 77 0
-78 3 0
79 -715 -76 0
-79 715 0
-79 76 0
80 -713 -15 0
-80 713 0
-80 15 0
81 -80 -23 0
-81 80 0
-81 23 0
82 -716 -79 0
-82 716 0
-82 79 0
83 -24 -15 0
-83 24 0
-83 15 0
84 -83 -717 0
-84 83 0
-84 717 0
85 -718 -82 0
-85 718 0
-85 82 0
86 -719 -714 0
-86 719 0
-86 714 0
87 -86 -717 0
-87 86 0
-87 717 0
88 -720 -85 0
-88 720 0
-88 85 0
89 -721 -722 0
-89 721 0
-89 722 0
90 -89 -701 0
-90 89 0
-90 701 0
91 -723 -88 0
-91 723 0
-91 88 0
92 -724 -28 0
-92 724 0
-92 28 0
93 -92 -8 0
-93 92 0
-93 8 0
94 -725 -91 0
-94 725 0
-94 91 0
95 -726 -30 0
-95 726 0
-95 30 0
96 -95 -727 0
-96 95 0
-96 727 0
97 -728 -94 0
-97 728 0
-97 94 0
98 -729 -8 0
-98 729 0
-98 8 0
99 -98 -9 0
-99 98 0
-99 9 0
100 -730 -97 0
-100 730 0
-100 97 0
101 -6 -2 0
-101 6 0
-101 2 0
102 -101 -34 0
-102 101 0
-102 34 0
103 -731 -100 0
-103 731 0
-103 100 0
104 -717 -16 0
-104 717 0
-104 16 0
105 -104 -732 0
-105 104 0
-105 732 0
106 -733 -103 0
-106 733 0
-106 103 0
107 -711 -8 0
-107 711 0
-107 8 0
108 -107 -701 0
-108 107 0
-108 701 0
109 -734 -106 0
-109 734 0
-109 106 0
110 -735 -736 0
-110 735 0
-110 736 0
111 -110 -737 0
-111 110 0
-111 737 0
112 -738 -109 0
-112 738 0
-112 109 0
113 -739 -13 0
-113 739 0
-113 13 0
114 -113 -37 0
-114 113 0
-114 37 0
115 -740 -112 0
-115 740 0
-115 112 0
116 -38 -18 0
-116 38 0
-116 18 0
117 -116 -39 0
-117 116 0
-117 39 0
118 -741 -115 0
-118 741 0
-118 115 0
119 -29 -15 0
-119 29 0
-119 15 0
120 -119 -25 0
-120 119 0
-120 25 0
121 -742 -118 0
-121 742 0
-121 118 0
122 -4 -1 0
-122 4 0
-122 1 0
123 -122 -8 0
-123 122 0
-123 8 0
124 -743 -121 0
-124 743 0
-124 121 0
125 -37 -721 0
-125 37 0
-125 721 0
126 -125 -744 0
-126 125 0
-126 744 0
127 -745 -124 0
-127 745 0
-127 124 0
128 -717 -2 0
-128 717 0
-128 2 0
129 -128 -35 0
-129 128 0
-129 35 0
130 -746 -127 0
-130 746 0
-130 127 0
131 -747 -748 0
-131 747 0
-131 748 0
132 -131 -717 0
-132 131 0
-132 717 0
133 -749 -130 0
-133 749 0
-133 130 0
134 -750 -751 0
-134 750 0
-134 751 0
135 -134 -752 0
-135 134 0
-135 752 0
136 -753 -133 0
-136 753 0
-136 133 0
137 -754 -713 0
-137 754 0
-137 713 0
138 -137 -35 0
-138 137 0
-138 35 0
139 -755 -136 0
-139 755 0
-139 136 0
140 -32 -31 0
-140 32 0
-140 31 0
141 -140 -756 0
-141 140 0
-141 756 0
142 -757 -139 0
-142 757 0
-142 139 0
143 -729 -2 0
-143 729 0
-143 2 0
144 -143 -24 0
-144 143 0
-144 24 0
145 -758 -142 0
-145 758 0
-145 142 0
146 -735 -2 0
-146 735 0
-146 2 0
147 -146 -10 0
-147 146 0
-147 10 0
148 -759 -145 0
-148 759 0
-148 145 0
149 -760 -705 0
-149 760 0
-149 705 0
150 -149 -10 0
-150 149 0
-150 10 0
151 -761 -148 0
-151 761 0
-151 148 0
152 -19 -762 0
-152 19 0
-152 762 0
153 -152 -12 0
-153 152 0
-153 12 0
154 -763 -151 0
-154 763 0
-154 151 0
155 -38 -748 0
-155 38 0
-155 748 0
156 -155 -713 0
-156 155 0
-156 713 0
157 -764 -154 0
-157 764 0
-157 154 0
158 -760 -697 0
-158 760 0
-158 697 0
159 -158 -701 0
-159 158 0
-159 701 0
160 -765 -157 0
-160 765 0
-160 157 0
161 -30 -748 0
-161 30 0
-161 748 0
162 -161 -701 0
-162 161 0
-162 701 0
163 -766 -160 0
-163 766 0
-163 160 0
164 -751 -28 0
-164 751 0
-164 28 0
165 -164 -23 0
-165 164 0
-165 23 0
166 -767 -163 0
-166 767 0
-166 163 0
167 -44 -21 0
-167 44 0
-167 21 0
168 -167 -36 0
-168 167 0
-168 36 0
169 -768 -166 0
-169 768 0
-169 166 0
170 -19 -6 0
-170 19 0
-170 6 0
171 -170 -45 0
-171 170 0
-171 45 0
172 -769 -169 0
-172 769 0
-172 169 0
173 -42 -770 0
-173 42 0
-173 770 0
174 -173 -771 0
-174 173 0
-174 771 0
175 -772 -172 0
-175 772 0
-175 172 0
176 -737 -773 0
-176 737 0
-176 773 0
177 -176 -40 0
-177 176 0
-177 40 0
178 -774 -175 0
-178 774 0
-178 175 0
179 -736 -17 0
-179 736 0
-179 17 0
180 -179 -43 0
-180 179 0
-180 43 0
181 -775 -178 0
-181 775 0
-181 178 0
182 -750 -19 0
-182 750 0
-182 19 0
183 -182 -24 0
-183 182 0
-183 24 0
184 -776 -181 0
-184 776 0
-184 181 0
185 -19 -5 0
-185 19 0
-185 5 0
186 -185 -23 0
-186 185 0
-186 23 0
187 -777 -184 0
-187 777 0
-187 184 0
188 -754 -5 0
-188 754 0
-188 5 0
189 -188 -778 0
-189 188 0
-189 778 0
190 -779 -187 0
-190 779 0
-190 187 0
191 -47 -27 0
-191 47 0
-191 27 0
192 -191 -727 0
-192 191 0
-192 727 0
193 -780 -190 0
-193 780 0
-193 190 0
194 -26 -18 0
-194 26 0
-194 18 0
195 -194 -35 0
-195 194 0
-195 35 0
196 -781 -193 0
-196 781 0
-196 193 0
197 -747 -10 0
-197 747 0
-197 10 0
198 -197 -748 0
-198 197 0
-198 748 0
199 -782 -196 0
-199 782 0
-199 196 0
200 -750 -783 0
-200 750 0
-200 783 0
201 -200 -24 0
-201 200 0
-201 24 0
202 -784 -199 0
-202 784 0
-202 199 0
203 -13 -8 0
-203 13 0
-203 8 0
204 -203 -713 0
-204 203 0
-204 713 0
205 -785 -202 0
-205 785 0
-205 202 0
206 -726 -714 0
-206 726 0
-206 714 0
207 -206 -34 0
-207 206 0
-207 34 0
208 -786 -205 0
-208 786 0
-208 205 0
209 -38 -726 0
-209 38 0
-209 726 0
210 -209 -751 0
-210 209 0
-210 751 0
211 -787 -208 0
-211 787 0
-211 208 0
212 -727 -2 0
-212 727 0
-212 2 0
213 -212 -36 0
-213 212 0
-213 36 0
214 -788 -211 0
-214 788 0
-214 211 0
215 -760 -789 0
-215 760 0
-215 789 0
216 -215 -744 0
-216 215 0
-216 744 0
217 -790 -214 0
-217 790 0
-217 214 0
218 -791 -16 0
-218 791 0
-218 16 0
219 -218 -40 0
-219 218 0
-219 40 0
220 -792 -217 0
-220 792 0
-220 217 0
221 -48 -793 0
-221 48 0
-221 793 0
222 -221 -27 0
-222 221 0
-222 27 0
223 -794 -220 0
-223 794 0
-223 220 0
224 -783 -9 0
-224 783 0
-224 9 0
225 -224 -770 0
-225 224 0
-225 770 0
226 -795 -223 0
-226 795 0
-226 223 0
227 -754 -751 0
-227 754 0
-227 751 0
228 -227 -22 0
-228 227 0
-228 22 0
229 -796 -226 0
-229 796 0
-229 226 0
230 -31 -16 0
-230 31 0
-230 16 0
231 -230 -732 0
-231 230 0
-231 732 0
232 -797 -229 0
-232 797 0
-232 229 0
233 -49 -701 0
-233 49 0
-233 701 0
234 -233 -12 0
-234 233 0
-234 12 0
235 -798 -232 0
-235 798 0
-235 232 0
236 -729 -791 0
-236 729 0
-236 791 0
237 -236 -770 0
-237 236 0
-237 770 0
238 -799 -235 0
-238 799 0
-238 235 0
239 -29 -760 0
-239 29 0
-239 760 0
240 -239 -43 0
-240 239 0
-240 43 0
241 -800 -238 0
-241 800 0
-241 238 0
242 -801 -11 0
-242 801 0
-242 11 0
243 -242 -752 0
-243 242 0
-243 752 0
244 -802 -241 0
-244 802 0
-244 241 0
245 -803 -711 0
-245 803 0
-245 711 0
246 -245 -25 0
-246 245 0
-246 25 0
247 -804 -244 0
-247 804 0
-247 244 0
248 -748 -805 0
-248 748 0
-248 805 0
249 -248 -17 0
-249 248 0
-249 17 0
250 -806 -247 0
-250 806 0
-250 247 0
251 -807 -735 0
-251 807 0
-251 735 0
252 -251 -770 0
-252 251 0
-252 770 0
253 -808 -250 0
-253 808 0
-253 250 0
254 -31 -4 0
-254 31 0
-254 4 0
255 -254 -707 0
-255 254 0
-255 707 0
256 -809 -253 0
-256 809 0
-256 253 0
257 -789 -697 0
-257 789 0
-257 697 0
258 -257 -737 0
-258 257 0
-258 737 0
259 -810 -256 0
-259 810 0
-259 256 0
260 -811 -35 0
-260 811 0
-260 35 0
261 -260 -40 0
-261 260 0
-261 40 0
262 -812 -259 0
-262 812 0
-262 259 0
263 -773 -701 0
-263 773 0
-263 701 0
264 -263 -739 0
-264 263 0
-264 739 0
265 -813 -262 0
-265 813 0
-265 262 0
266 -721 -760 0
-266 721 0
-266 760 0
267 -266 -20 0
-267 266 0
-267 20 0
268 -814 -265 0
-268 814 0
-268 265 0
269 -19 -11 0
-269 19 0
-269 11 0
270 -269 -24 0
-270 269 0
-270 24 0
271 -815 -268 0
-271 815 0
-271 268 0
272 -33 -760 0
-272 33 0
-272 760 0
273 -272 -10 0
-273 272 0
-273 10 0
274 -816 -271 0
-274 816 0
-274 271 0
275 -817 -805 0
-275 817 0
-275 805 0
276 -275 -39 0
-276 275 0
-276 39 0
277 -818 -274 0
-277 818 0
-277 274 0
278 -721 -11 0
-278 721 0
-278 11 0
279 -278 -803 0
-279 278 0
-279 803 0
280 -819 -277 0
-280 819 0
-280 277 0
281 -38 -19 0
-281 38 0
-281 19 0
282 -281 -32 0
-282 281 0
-282 32 0
283 -820 -280 0
-283 820 0
-283 280 0
284 -11 -762 0
-284 11 0
-284 762 0
285 -284 -7 0
-285 284 0
-285 7 0
286 -821 -283 0
-286 821 0
-286 283 0
287 -33 -11 0
-287 33 0
-287 11 0
288 -287 -44 0
-288 287 0
-288 44 0
289 -822 -286 0
-289 822 0
-289 286 0
290 -823 -711 0
-290 823 0
-290 711 0
291 -290 -811 0
-291 290 0
-291 811 0
292 -824 -289 0
-292 824 0
-292 289 0
293 -21 -13 0
-293 21 0
-293 13 0
294 -293 -752 0
-294 293 0
-294 752 0
295 -825 -292 0
-295 825 0
-295 292 0
296 -45 -826 0
-296 45 0
-296 826 0
297 -296 -40 0
-297 296 0
-297 40 0
298 -827 -295 0
-298 827 0
-298 295 0
299 -713 -11 0
-299 713 0
-299 11 0
300 -299 -23 0
-300 299 0
-300 23 0
301 -828 -298 0
-301 828 0
-301 298 0
302 -16 -829 0
-302 16 0
-302 829 0
303 -302 -39 0
-303 302 0
-303 39 0
304 -830 -301 0
-304 830 0
-304 301 0
305 -16 -760 0
-305 16 0
-305 760 0
306 -305 -727 0
-306 305 0
-306 727 0
307 -831 -304 0
-307 831 0
-307 304 0
308 -17 -14 0
-308 17 0
-308 14 0
309 -308 -37 0
-309 308 0
-309 37 0
310 -832 -307 0
-310 832 0
-310 307 0
311 -44 -736 0
-311 44 0
-311 736 0
312 -311 -35 0
-312 311 0
-312 35 0
313 -833 -310 0
-313 833 0
-313 310 0
314 -191 -13 0
-314 191 0
-314 13 0
315 -834 -313 0
-315 834 0
-315 313 0
316 -49 -748 0
-316 49 0
-316 748 0
317 -316 -35 0
-317 316 0
-317 35 0
318 -835 -315 0
-318 835 0
-318 315 0
319 -726 -23 0
-319 726 0
-319 23 0
320 -319 -12 0
-320 319 0
-320 12 0
321 -836 -318 0
-321 836 0
-321 318 0
322 -48 -11 0
-322 48 0
-322 11 0
323 -322 -31 0
-323 322 0
-323 31 0
324 -837 -321 0
-324 837 0
-324 321 0
325 -46 -13 0
-325 46 0
-325 13 0
326 -325 -752 0
-326 325 0
-326 752 0
327 -838 -324 0
-327 838 0
-327 324 0
328 -811 -13 0
-328 811 0
-328 13 0
329 -328 -3 0
-329 328 0
-329 3 0
330 -839 -327 0
-330 839 0
-330 327 0
331 -29 -16 0
-331 29 0
-331 16 0
332 -331 -736 0
-332 331 0
-332 736 0
333 -840 -330 0
-333 840 0
-333 330 0
334 -737 -711 0
-334 737 0
-334 711 0
335 -334 -43 0
-335 334 0
-335 43 0
336 -841 -333 0
-336 841 0
-336 333 0
337 -729 -26 0
-337 729 0
-337 26 0
338 -337 -34 0
-338 337 0
-338 34 0
339 -842 -336 0
-339 842 0
-339 336 0
340 -807 -27 0
-340 807 0
-340 27 0
341 -340 -35 0
-341 340 0
-341 35 0
342 -843 -339 0
-342 843 0
-342 339 0
343 -748 -762 0
-343 748 0
-343 762 0
344 -343 -751 0
-344 343 0
-344 751 0
345 -844 -342 0
-345 844 0
-345 342 0
346 -25 -9 0
-346 25 0
-346 9 0
347 -346 -744 0
-347 346 0
-347 744 0
348 -845 -345 0
-348 845 0
-348 345 0
349 -747 -29 0
-349 747 0
-349 29 0
350 -349 -762 0
-350 349 0
-350 762 0
351 -846 -348 0
-351 846 0
-351 348 0
352 -754 -28 0
-352 754 0
-352 28 0
353 -352 -752 0
-353 352 0
-353 752 0
354 -847 -351 0
-354 847 0
-354 351 0
355 -721 -5 0
-355 721 0
-355 5 0
356 -355 -46 0
-356 355 0
-356 46 0
357 -848 -354 0
-357 848 0
-357 354 0
358 -47 -10 0
-358 47 0
-358 10 0
359 -358 -717 0
-359 358 0
-359 717 0
360 -849 -357 0
-360 849 0
-360 357 0
361 -26 -701 0
-361 26 0
-361 701 0
362 -361 -732 0
-362 361 0
-362 732 0
363 -850 -360 0
-363 850 0
-363 360 0
364 -50 -42 0
-364 50 0
-364 42 0
365 -364 -744 0
-365 364 0
-365 744 0
366 -851 -363 0
-366 851 0
-366 363 0
367 -726 -724 0
-367 726 0
-367 724 0
368 -367 -50 0
-368 367 0
-368 50 0
369 -852 -366 0
-369 852 0
-369 366 0
370 -41 -18 0
-370 41 0
-370 18 0
371 -370 -44 0
-371 370 0
-371 44 0
372 -853 -369 0
-372 853 0
-372 369 0
373 -719 -722 0
-373 719 0
-373 722 0
374 -373 -811 0
-374 373 0
-374 811 0
375 -854 -372 0
-375 854 0
-375 372 0
376 -30 -21 0
-376 30 0
-376 21 0
377 -376 -826 0
-377 376 0
-377 826 0
378 -855 -375 0
-378 855 0
-378 375 0
379 -714 -698 0
-379 714 0
-379 698 0
380 -379 -10 0
-380 379 0
-380 10 0
381 -856 -378 0
-381 856 0
-381 378 0
382 -33 -31 0
-382 33 0
-382 31 0
383 -382 -771 0
-383 382 0
-383 771 0
384 -857 -381 0
-384 857 0
-384 381 0
385 -726 -4 0
-385 726 0
-385 4 0
386 -385 -25 0
-386 385 0
-386 25 0
387 -858 -384 0
-387 858 0
-387 384 0
388 -46 -11 0
-388 46 0
-388 11 0
389 -388 -826 0
-389 388 0
-389 826 0
390 -859 -387 0
-390 859 0
-390 387 0
391 -20 -829 0
-391 20 0
-391 829 0
392 -391 -17 0
-392 391 0
-392 17 0
393 -860 -390 0
-393 860 0
-393 390 0
394 -41 -805 0
-394 41 0
-394 805 0
395 -394 -751 0
-395 394 0
-395 751 0
396 -861 -393 0
-396 861 0
-396 393 0
397 -20 -1 0
-397 20 0
-397 1 0
398 -397 -23 0
-398 397 0
-398 23 0
399 -862 -396 0
-399 862 0
-399 396 0
400 -823 -829 0
-400 823 0
-400 829 0
401 -400 -9 0
-401 400 0
-401 9 0
402 -863 -399 0
-402 863 0
-402 399 0
403 -14 -6 0
-403 14 0
-403 6 0
404 -403 -43 0
-404 403 0
-404 43 0
405 -864 -402 0
-405 864 0
-405 402 0
406 -38 -30 0
-406 38 0
-406 30 0
407 -406 -783 0
-407 406 0
-407 783 0
408 -865 -405 0
-408 865 0
-408 405 0
409 -43 -31 0
-409 43 0
-409 31 0
410 -409 -744 0
-410 409 0
-410 744 0
411 -866 -408 0
-411 866 0
-411 408 0
412 -817 -717 0
-412 817 0
-412 717 0
413 -412 -37 0
-413 412 0
-413 37 0
414 -867 -411 0
-414 867 0
-414 411 0
415 -30 -736 0
-415 30 0
-415 736 0
416 -415 -32 0
-416 415 0
-416 32 0
417 -868 -414 0
-417 868 0
-417 414 0
418 -727 -23 0
-418 727 0
-418 23 0
419 -418 -3 0
-419 418 0
-419 3 0
420 -869 -417 0
-420 869 0
-420 417 0
421 -811 -727 0
-421 811 0
-421 727 0
422 -421 -737 0
-422 421 0
-422 737 0
423 -870 -420 0
-423 870 0
-423 420 0
424 -26 -5 0
-424 26 0
-424 5 0
425 -424 -697 0
-425 424 0
-425 697 0
426 -871 -423 0
-426 871 0
-426 423 0
427 -41 -9 0
-427 41 0
-427 9 0
428 -427 -24 0
-428 427 0
-428 24 0
429 -872 -426 0
-429 872 0
-429 426 0
430 -33 -721 0
-430 33 0
-430 721 0
431 -430 -701 0
-431 430 0
-431 701 0
432 -873 -429 0
-432 873 0
-432 429 0
433 -191 -778 0
-433 191 0
-433 778 0
434 -874 -432 0
-434 874 0
-434 432 0
435 -42 -8 0
-435 42 0
-435 8 0
436 -435 -817 0
-436 435 0
-436 817 0
437 -875 -434 0
-437 875 0
-437 434 0
438 -18 -789 0
-438 18 0
-438 789 0
439 -438 -10 0
-439 438 0
-439 10 0
440 -876 -437 0
-440 876 0
-440 437 0
441 -773 -762 0
-441 773 0
-441 762 0
442 -441 -751 0
-442 441 0
-442 751 0
443 -877 -440 0
-443 877 0
-443 440 0
444 -29 -9 0
-444 29 0
-444 9 0
445 -444 -45 0
-445 444 0
-445 45 0
446 -878 -443 0
-446 878 0
-446 443 0
447 -33 -789 0
-447 33 0
-447 789 0
448 -447 -36 0
-448 447 0
-448 36 0
449 -879 -446 0
-449 879 0
-449 446 0
450 -32 -26 0
-450 32 0
-450 26 0
451 -450 -36 0
-451 450 0
-451 36 0
452 -880 -449 0
-452 880 0
-452 449 0
453 -719 -705 0
-453 719 0
-453 705 0
454 -453 -13 0
-454 453 0
-454 13 0
455 -881 -452 0
-455 881 0
-455 452 0
456 -756 -6 0
-456 756 0
-456 6 0
457 -456 -791 0
-457 456 0
-457 791 0
458 -882 -455 0
-458 882 0
-458 455 0
459 -793 -30 0
-459 793 0
-459 30 0
460 -459 -737 0
-460 459 0
-460 737 0
461 -883 -458 0
-461 883 0
-461 458 0
462 -33 -10 0
-462 33 0
-462 10 0
463 -462 -701 0
-463 462 0
-463 701 0
464 -884 -461 0
-464 884 0
-464 461 0
465 -727 -721 0
-465 727 0
-465 721 0
466 -465 -24 0
-466 465 0
-466 24 0
467 -885 -464 0
-467 885 0
-467 464 0
468 -726 -829 0
-468 726 0
-468 829 0
469 -468 -826 0
-469 468 0
-469 826 0
470 -886 -467 0
-470 886 0
-470 467 0
471 -748 -711 0
-471 748 0
-471 711 0
472 -471 -732 0
-472 471 0
-472 732 0
473 -887 -470 0
-473 887 0
-473 470 0
474 -38 -707 0
-474 38 0
-474 707 0
475 -474 -748 0
-475 474 0
-475 748 0
476 -888 -473 0
-476 888 0
-476 473 0
477 -33 -29 0
-477 33 0
-477 29 0
478 -477 -748 0
-478 477 0
-478 748 0
479 -889 -476 0
-479 889 0
-479 476 0
480 -811 -697 0
-480 811 0
-480 697 0
481 -480 -771 0
-481 480 0
-481 771 0
482 -890 -479 0
-482 890 0
-482 479 0
483 -328 -34 0
-483 328 0
-483 34 0
484 -891 -482 0
-484 891 0
-484 482 0
485 -26 -13 0
-485 26 0
-485 13 0
486 -485 -32 0
-486 485 0
-486 32 0
487 -892 -484 0
-487 892 0
-487 484 0
488 -26 -762 0
-488 26 0
-488 762 0
489 -488 -14 0
-489 488 0
-489 14 0
490 -893 -487 0
-490 893 0
-490 487 0
491 -721 -7 0
-491 721 0
-491 7 0
492 -491 -727 0
-492 491 0
-492 727 0
493 -894 -490 0
-493 894 0
-493 490 0
494 -705 -9 0
-494 705 0
-494 9 0
495 -494 -22 0
-495 494 0
-495 22 0
496 -895 -493 0
-496 895 0
-496 493 0
497 -44 -727 0
-497 44 0
-497 727 0
498 -497 -24 0
-498 497 0
-498 24 0
499 -896 -496 0
-499 896 0
-499 496 0
500 -807 -729 0
-500 807 0
-500 729 0
501 -500 -811 0
-501 500 0
-501 811 0
502 -897 -499 0
-502 897 0
-502 499 0
503 -19 -748 0
-503 19 0
-503 748 0
504 -503 -817 0
-504 503 0
-504 817 0
505 -898 -502 0
-505 898 0
-505 502 0
506 -33 -18 0
-506 33 0
-506 18 0
507 -506 -39 0
-507 506 0
-507 39 0
508 -899 -505 0
-508 899 0
-508 505 0
509 -807 -42 0
-509 807 0
-509 42 0
510 -509 -726 0
-510 509 0
-510 726 0
511 -900 -508 0
-511 900 0
-511 508 0
512 -726 -20 0
-512 726 0
-512 20 0
513 -512 -22 0
-513 512 0
-513 22 0
514 -901 -511 0
-514 901 0
-514 511 0
515 -752 -729 0
-515 752 0
-515 729 0
516 -515 -902 0
-516 515 0
-516 902 0
517 -903 -514 0
-517 903 0
-517 514 0
518 -29 -27 0
-518 29 0
-518 27 0
519 -518 -737 0
-519 518 0
-519 737 0
520 -904 -517 0
-520 904 0
-520 517 0
521 -726 -823 0
-521 726 0
-521 823 0
522 -521 -803 0
-522 521 0
-522 803 0
523 -905 -520 0
-523 905 0
-523 520 0
524 -722 -805 0
-524 722 0
-524 805 0
525 -524 -770 0
-525 524 0
-525 770 0
526 -906 -523 0
-526 906 0
-526 523 0
527 -17 -773 0
-527 17 0
-527 773 0
528 -527 -23 0
-528 527 0
-528 23 0
529 -907 -526 0
-529 907 0
-529 526 0
530 -705 -7 0
-530 705 0
-530 7 0
531 -530 -23 0
-531 530 0
-531 23 0
532 -908 -529 0
-532 908 0
-532 529 0
533 -134 -23 0
-533 134 0
-533 23 0
534 -909 -532 0
-534 909 0
-534 532 0
535 -714 -7 0
-535 714 0
-535 7 0
536 -535 -20 0
-536 535 0
-536 20 0
537 -910 -534 0
-537 910 0
-537 534 0
538 -739 -26 0
-538 739 0
-538 26 0
539 -538 -732 0
-539 538 0
-539 732 0
540 -911 -537 0
-540 911 0
-540 537 0
541 -18 -5 0
-541 18 0
-541 5 0
542 -541 -726 0
-542 541 0
-542 726 0
543 -912 -540 0
-543 912 0
-543 540 0
544 -727 -829 0
-544 727 0
-544 829 0
545 -544 -50 0
-545 544 0
-545 50 0
546 -913 -543 0
-546 913 0
-546 543 0
547 -23 -703 0
-547 23 0
-547 703 0
548 -547 -40 0
-548 547 0
-548 40 0
549 -914 -546 0
-549 914 0
-549 546 0
550 -760 -5 0
-550 760 0
-550 5 0
551 -550 -737 0
-551 550 0
-551 737 0
552 -915 -549 0
-552 915 0
-552 549 0
553 -35 -30 0
-553 35 0
-553 30 0
554 -553 -902 0
-554 553 0
-554 902 0
555 -916 -552 0
-555 916 0
-555 552 0
556 -18 -13 0
-556 18 0
-556 13 0
557 -556 -3 0
-557 556 0
-557 3 0
558 -917 -555 0
-558 917 0
-558 555 0
559 -748 -789 0
-559 748 0
-559 789 0
560 -559 -826 0
-560 559 0
-560 826 0
561 -918 -558 0
-561 918 0
-561 558 0
562 -278 -19 0
-562 278 0
-562 19 0
563 -919 -561 0
-563 919 0
-563 561 0
564 -737 -736 0
-564 737 0
-564 736 0
565 -564 -771 0
-565 564 0
-565 771 0
566 -920 -563 0
-566 920 0
-566 563 0
567 -722 -12 0
-567 722 0
-567 12 0
568 -567 -771 0
-568 567 0
-568 771 0
569 -921 -566 0
-569 921 0
-569 566 0
570 -30 -711 0
-570 30 0
-570 711 0
571 -570 -751 0
-571 570 0
-571 751 0
572 -922 -569 0
-572 922 0
-572 569 0
573 -19 -13 0
-573 19 0
-573 13 0
574 -573 -902 0
-574 573 0
-574 902 0
575 -923 -572 0
-575 923 0
-575 572 0
576 -735 -760 0
-576 735 0
-576 760 0
577 -576 -750 0
-577 576 0
-577 750 0
578 -924 -575 0
-578 924 0
-578 575 0
579 -44 -823 0
-579 44 0
-579 823 0
580 -579 -12 0
-580 579 0
-580 12 0
581 -925 -578 0
-581 925 0
-581 578 0
582 -739 -1 0
-582 739 0
-582 1 0
583 -582 -771 0
-583 582 0
-583 771 0
584 -926 -581 0
-584 926 0
-584 581 0
585 -713 -8 0
-585 713 0
-585 8 0
586 -585 -771 0
-586 585 0
-586 771 0
587 -927 -584 0
-587 927 0
-587 584 0
588 -783 -829 0
-588 783 0
-588 829 0
589 -588 -46 0
-589 588 0
-589 46 0
590 -928 -587 0
-590 928 0
-590 587 0
591 -34 -14 0
-591 34 0
-591 14 0
592 -591 -17 0
-592 591 0
-592 17 0
593 -929 -590 0
-593 929 0
-593 590 0
594 -803 -46 0
-594 803 0
-594 46 0
595 -594 -43 0
-595 594 0
-595 43 0
596 -930 -593 0
-596 930 0
-596 593 0
597 -497 -35 0
-597 497 0
-597 35 0
598 -931 -596 0
-598 931 0
-598 596 0
599 -732 -25 0
-599 732 0
-599 25 0
600 -599 -45 0
-600 599 0
-600 45 0
601 -932 -598 0
-601 932 0
-601 598 0
602 -791 -11 0
-602 791 0
-602 11 0
603 -602 -770 0
-603 602 0
-603 770 0
604 -933 -601 0
-604 933 0
-604 601 0
605 -36 -762 0
-605 36 0
-605 762 0
606 -605 -12 0
-606 605 0
-606 12 0
607 -934 -604 0
-607 934 0
-607 604 0
608 -783 -711 0
-608 783 0
-608 711 0
609 -608 -778 0
-609 608 0
-609 778 0
610 -935 -607 0
-610 935 0
-610 607 0
611 -729 -721 0
-611 729 0
-611 721 0
612 -611 -25 0
-612 611 0
-612 25 0
613 -936 -610 0
-613 936 0
-613 610 0
614 -793 -717 0
-614 793 0
-614 717 0
615 -614 -39 0
-615 614 0
-615 39 0
616 -937 -613 0
-616 937 0
-616 613 0
617 -11 -1 0
-617 11 0
-617 1 0
618 -617 -707 0
-618 617 0
-618 707 0
619 -938 -616 0
-619 938 0
-619 616 0
620 -44 -724 0
-620 44 0
-620 724 0
621 -620 -10 0
-621 620 0
-621 10 0
622 -939 -619 0
-622 939 0
-622 619 0
623 -30 -20 0
-623 30 0
-623 20 0
624 -623 -10 0
-624 623 0
-624 10 0
625 -940 -622 0
-625 940 0
-625 622 0
626 -379 -707 0
-626 379 0
-626 707 0
627 -941 -625 0
-627 941 0
-627 625 0
628 -44 -42 0
-628 44 0
-628 42 0
629 -628 -736 0
-629 628 0
-629 736 0
630 -942 -627 0
-630 942 0
-630 627 0
631 -739 -31 0
-631 739 0
-631 31 0
632 -631 -744 0
-632 631 0
-632 744 0
633 -943 -630 0
-633 943 0
-633 630 0
634 -18 -748 0
-634 18 0
-634 748 0
635 -634 -34 0
-635 634 0
-635 34 0
636 -944 -633 0
-636 944 0
-636 633 0
637 -19 -805 0
-637 19 0
-637 805 0
638 -637 -773 0
-638 637 0
-638 773 0
639 -945 -636 0
-639 945 0
-639 636 0
640 -47 -26 0
-640 47 0
-640 26 0
641 -640 -701 0
-641 640 0
-641 701 0
642 -946 -639 0
-642 946 0
-642 639 0
643 -21 -5 0
-643 21 0
-643 5 0
644 -643 -736 0
-644 643 0
-644 736 0
645 -947 -642 0
-645 947 0
-645 642 0
646 -49 -8 0
-646 49 0
-646 8 0
647 -646 -717 0
-647 646 0
-647 717 0
648 -948 -645 0
-648 948 0
-648 645 0
649 -701 -762 0
-649 701 0
-649 762 0
650 -649 -727 0
-650 649 0
-650 727 0
651 -949 -648 0
-651 949 0
-651 648 0
652 -10 -707 0
-652 10 0
-652 707 0
653 -652 -751 0
-653 652 0
-653 751 0
654 -950 -651 0
-654 950 0
-654 651 0
655 -756 -11 0
-655 756 0
-655 11 0
656 -655 -35 0
-656 655 0
-656 35 0
657 -951 -654 0
-657 951 0
-657 654 0
658 -29 -11 0
-658 29 0
-658 11 0
659 -658 -45 0
-659 658 0
-659 45 0
660 -952 -657 0
-660 952 0
-660 657 0
661 -750 -5 0
-661 750 0
-661 5 0
662 -661 -762 0
-662 661 0
-662 762 0
663 -953 -660 0
-663 953 0
-663 660 0
664 -16 -13 0
-664 16 0
-664 13 0
665 -664 -703 0
-665 664 0
-665 703 0
666 -954 -663 0
-666 954 0
-666 663 0
667 -737 -16 0
-667 737 0
-667 16 0
668 -667 -703 0
-668 667 0
-668 703 0
669 -955 -666 0
-669 955 0
-669 666 0
670 -29 -707 0
-670 29 0
-670 707 0
671 -670 -39 0
-671 670 0
-671 39 0
672 -956 -669 0
-672 956 0
-672 669 0
673 -736 -762 0
-673 736 0
-673 762 0
674 -673 -40 0
-674 673 0
-674 40 0
675 -957 -672 0
-675 957 0
-675 672 0
676 -735 -4 0
-676 735 0
-676 4 0
677 -676 -789 0
-677 676 0
-677 789 0
678 -958 -675 0
-678 958 0
-678 675 0
679 -811 -756 0
-679 811 0
-679 756 0
680 -679 -43 0
-680 679 0
-680 43 0
681 -959 -678 0
-681 959 0
-681 678 0
682 -33 -28 0
-682 33 0
-682 28 0
683 -682 -739 0
-683 682 0
-683 739 0
684 -960 -681 0
-684 960 0
-684 681 0
685 -748 -4 0
-685 748 0
-685 4 0
686 -685 -717 0
-686 685 0
-686 717 0
687 -961 -684 0
-687 961 0
-687 684 0
688 -803 -791 0
-688 803 0
-688 791 0
689 -688 -771 0
-689 688 0
-689 771 0
690 -962 -687 0
-690 962 0
-690 687 0
691 -26 -19 0
-691 26 0
-691 19 0
692 -691 -754 0
-692 691 0
-692 754 0
693 -963 -690 0
-693 963 0
-693 690 0
694 -807 -778 0
-694 807 0
-694 778 0
695 -694 -3 0
-695 694 0
-695 3 0
696 -964 -693 0
-696 964 0
-696 693 0
-697 -2 0
697 2 0
-698 -1 0
698 1 0
-699 -54 0
699 54 0
-700 -52 0
700 52 0
-701 -9 0
701 9 0
-702 -57 0
702 57 0
-703 -3 0
703 3 0
-704 -60 0
704 60 0
-705 -11 0
705 11 0
-706 -63 0
706 63 0
-707 -7 0
707 7 0
-708 -66 0
708 66 0
-709 -69 0
709 69 0
-710 -72 0
710 72 0
-711 -10 0
711 10 0
-712 -75 0
712 75 0
-713 -22 0
713 22 0
-714 -21 0
714 21 0
-715 -78 0
715 78 0
-716 -81 0
716 81 0
-717 -25 0
717 25 0
-718 -84 0
718 84 0
-719 -26 0
719 26 0
-720 -87 0
720 87 0
-721 -27 0
721 27 0
-722 -19 0
722 19 0
-723 -90 0
723 90 0
-724 -29 0
724 29 0
-725 -93 0
725 93 0
-726 -31 0
726 31 0
-727 -32 0
727 32 0
-728 -96 0
728 96 0
-729 -33 0
729 33 0
-730 -99 0
730 99 0
-731 -102 0
731 102 0
-732 -35 0
732 35 0
-733 -105 0
733 105 0
-734 -108 0
734 108 0
-735 -30 0
735 30 0
-736 -20 0
736 20 0
-737 -24 0
737 24 0
-738 -111 0
738 111 0
-739 -36 0
739 36 0
-740 -114 0
740 114 0
-741 -117 0
741 117 0
-742 -120 0
742 120 0
-743 -123 0
743 123 0
-744 -40 0
744 40 0
-745 -126 0
745 126 0
-746 -129 0
746 129 0
-747 -41 0
747 41 0
-748 -13 0
748 13 0
-749 -132 0
749 132 0
-750 -42 0
750 42 0
-751 -34 0
751 34 0
-752 -43 0
752 43 0
-753 -135 0
753 135 0
-754 -44 0
754 44 0
-755 -138 0
755 138 0
-756 -17 0
756 17 0
-757 -141 0
757 141 0
-758 -144 0
758 144 0
-759 -147 0
759 147 0
-760 -15 0
760 15 0
-761 -150 0
761 150 0
-762 -6 0
762 6 0
-763 -153 0
763 153 0
-764 -156 0
764 156 0
-765 -159 0
765 159 0
-766 -162 0
766 162 0
-767 -165 0
767 165 0
-768 -168 0
768 168 0
-769 -171 0
769 171 0
-770 -12 0
770 12 0
-771 -45 0
771 45 0
-772 -174 0
772 174 0
-773 -14 0
773 14 0
-774 -177 0
774 177 0
-775 -180 0
775 180 0
-776 -183 0
776 183 0
-777 -186 0
777 186 0
-778 -46 0
778 46 0
-779 -189 0
779 189 0
-780 -192 0
780 192 0
-781 -195 0
781 195 0
-782 -198 0
782 198 0
-783 -16 0
783 16 0
-784 -201 0
784 201 0
-785 -204 0
785 204 0
-786 -207 0
786 207 0
-787 -210 0
787 210 0
-788 -213 0
788 213 0
-789 -5 0
789 5 0
-790 -216 0
790 216 0
-791 -23 0
791 23 0
-792 -219 0
792 219 0
-793 -38 0
793 38 0
-794 -222 0
794 222 0
-795 -225 0
795 225 0
-796 -228 0
796 228 0
-797 -231 0
797 231 0
-798 -234 0
798 234 0
-799 -237 0
799 237 0
-800 -240 0
800 240 0
-801 -28 0
801 28 0
-802 -243 0
802 243 0
-803 -47 0
803 47 0
-804 -246 0
804 246 0
-805 -4 0
805 4 0
-806 -249 0
806 249 0
-807 -48 0
807 48 0
-808 -252 0
808 252 0
-809 -255 0
809 255 0
-810 -258 0
810 258 0
-811 -49 0
811 49 0
-812 -261 0
812 261 0
-813 -264 0
813 264 0
-814 -267 0
814 267 0
-815 -270 0
815 270 0
-816 -273 0
816 273 0
-817 -50 0
817 50 0
-818 -276 0
818 276 0
-819 -279 0
819 279 0
-820 -282 0
820 282 0
-821 -285 0
821 285 0
-822 -288 0
822 288 0
-823 -18 0
823 18 0
-824 -291 0
824 291 0
-825 -294 0
825 294 0
-826 -39 0
826 39 0
-827 -297 0
827 297 0
-828 -300 0
828 300 0
-829 -8 0
829 8 0
-830 -303 0
830 303 0
-831 -306 0
831 306 0
-832 -309 0
832 309 0
-833 -312 0
833 312 0
-834 -314 0
834 314 0
-835 -317 0
835 317 0
-836 -320 0
836 320 0
-837 -323 0
837 323 0
-838 -326 0
838 326 0
-839 -329 0
839 329 0
-840 -332 0
840 332 0
-841 -335 0
841 335 0
-842 -338 0
842 338 0
-843 -341 0
843 341 0
-844 -344 0
844 344 0
-845 -347 0
845 347 0
-846 -350 0
846 350 0
-847 -353 0
847 353 0
-848 -356 0
848 356 0
-849 -359 0
849 359 0
-850 -362 0
850 362 0
-851 -365 0
851 365 0
-852 -368 0
852 368 0
-853 -371 0
853 371 0
-854 -374 0
854 374 0
-855 -377 0
855 377 0
-856 -380 0
856 380 0
-857 -383 0
857 383 0
-858 -386 0
858 386 0
-859 -389 0
859 389 0
-860 -392 0
860 392 0
-861 -395 0
861 395 0
-862 -398 0
862 398 0
-863 -401 0
863 401 0
-864 -404 0
864 404 0
-865 -407 0
865 407 0
-866 -410 0
866 410 0
-867 -413 0
867 413 0
-868 -416 0
868 416 0
-869 -419 0
869 419 0
-870 -422 0
870 422 0
-871 -425 0
871 425 0
-872 -428 0
872 428 0
-873 -431 0
873 431 0
-874 -433 0
874 433 0
-875 -436 0
875 436 0
-876 -439 0
876 439 0
-877 -442 0
877 442 0
-878 -445 0
878 445 0
-879 -448 0
879 448 0
-880 -451 0
880 451 0
-881 -454 0
881 454 0
-882 -457 0
882 457 0
-883 -460 0
883 460 0
-884 -463 0
884 463 0
-885 -466 0
885 466 0
-886 -469 0
886 469 0
-887 -472 0
887 472 0
-888 -475 0
888 475 0
-889 -478 0
889 478 0
-890 -481 0
890 481 0
-891 -483 0
891 483 0
-892 -486 0
892 486 0
-893 -489 0
893 489 0
-894 -492 0
894 492 0
-895 -495 0
895 495 0
-896 -498 0
896 498 0
-897 -501 0
897 501 0
-898 -504 0
898 504 0
-899 -507 0
899 507 0
-900 -510 0
900 510 0
-901 -513 0
901 513 0
-902 -37 0
902 37 0
-903 -516 0
903 516 0
-904 -519 0
904 519 0
-905 -522 0
905 522 0
-906 -525 0
906 525 0
-907 -528 0
907 528 0
-908 -531 0
908 531 0
-909 -533 0
909 533 0
-910 -536 0
910 536 0
-911 -539 0
911 539 0
-912 -542 0
912 542 0
-913 -545 0
913 545 0
-914 -548 0
914 548 0
-915 -551 0
915 551 0
-916 -554 0
916 554 0
-917 -557 0
917 557 0
-918 -560 0
918 560 0
-919 -562 0
919 562 0
-920 -565 0
920 565 0
-921 -568 0
921 568 0
-922 -571 0
922 571 0
-923 -574 0
923 574 0
-924 -577 0
924 577 0
-925 -580 0
925 580 0
-926 -583 0
926 583 0
-927 -586 0
927 586 0
-928 -589 0
928 589 0
-929 -592 0
929 592 0
-930 -595 0
930 595 0
-931 -597 0
931 597 0
-932 -600 0
932 600 0
-933 -603 0
933 603 0
-934 -606 0
934 606 0
-935 -609 0
935 609 0
-936 -612 0
936 612 0
-937 -615 0
937 615 0
-938 -618 0
938 618 0
-939 -621 0
939 621 0
-940 -624 0
940 624 0
-941 -626 0
941 626 0
-942 -629 0
942 629 0
-943 -632 0
943 632 0
-944 -635 0
944 635 0
-945 -638 0
945 638 0
-946 -641 0
946 641 0
-947 -644 0
947 644 0
-948 -647 0
948 647 0
-949 -650 0
949 650 0
-950 -653 0
950 653 0
-951 -656 0
951 656 0
-952 -659 0
952 659 0
-953 -662 0
953 662 0
-954 -665 0
954 665 0
-955 -668 0
955 668 0
-956 -671 0
956 671 0
-957 -674 0
957 674 0
-958 -677 0
958 677 0
-959 -680 0
959 680 0
-960 -683 0
960 683 0
-961 -686 0
961 686 0
-962 -689 0
962 689 0
-963 -692 0
963 692 0
-964 -695 0
964 695 0
696 0
